param T := 4;

param HoldingCost := 20;
param MaxContainer := 500;
param InitContainer := 200;
param NumCranes := 4;
param CraneCapacity := 200;
param CraneCost := 1000;

param Demands :=
1 450
2 700
3 500
4 750
;

param UnloadCosts :=
1 75
2 100
3 105
4 130
;

param UnloadCapacity :=
1 800
2 500
3 450
4 700
;
